(set-logic ALL)
(declare-fun i1 () Int)
(declare-fun it523 () Int)
(declare-fun it524 () Int)
(declare-fun i2 () Int)
(declare-fun it525 () Int)
(declare-fun i3 () Int)
(declare-fun it526 () Int)
(declare-fun i4 () Int)
(declare-fun it527 () Int)
(declare-fun i5 () Int)
(declare-fun it528 () Int)
(declare-fun i6 () Int)
(declare-fun it529 () Int)
(declare-fun i7 () Int)
(declare-fun it731 () Int)
(declare-fun it732 () Int)
(declare-fun it733 () Int)
(declare-fun it734 () Int)
(declare-fun it735 () Int)
(declare-fun it736 () Int)
(declare-fun it737 () Int)
(declare-fun it741 () Int)
(declare-fun it742 () Int)
(declare-fun it743 () Int)
(declare-fun it744 () Int)
(declare-fun it745 () Int)
(declare-fun it746 () Int)
(declare-fun it747 () Int)
(declare-fun it768 () Int)
(declare-fun it769 () Int)
(declare-fun it770 () Int)
(declare-fun it771 () Int)
(declare-fun it772 () Int)
(declare-fun it773 () Int)
(declare-fun it774 () Int)
(declare-fun it777 () Int)
(declare-fun it778 () Int)
(declare-fun it779 () Int)
(declare-fun it780 () Int)
(declare-fun it781 () Int)
(declare-fun it782 () Int)
(declare-fun it783 () Int)
(declare-fun it107 () Int)
(assert (= (+ i1 (- 1)) 0))
(assert (= (+ it523 (- 2)) 0))
(assert (= (+ (* i2 (- 1)) it524 (- 1)) 0))
(assert (= (+ (* i3 (- 1)) it525) 0))
(assert (= (+ (* i4 (- 1)) it526) 0))
(assert (= (+ (* i5 (- 1)) it527) 0))
(assert (= (+ (* i6 (- 1)) it528) 0))
(assert (= (+ (* i7 (- 1)) it529) 0))
(assert (and (<= (+ (* it528 (- 1)) (- 5)) 0)
     (= (+ it523 (- 2)) 0)
     (> it525 0)
     (<= (+ it528 (- 5)) 0)))
(assert (= (+ it731 (- 3)) 0))
(assert (= (+ (* it524 (- 1)) it732 (- 2)) 0))
(assert (= (+ (* it525 (- 1)) it733) 0))
(assert (= (+ (* it525 (- 1)) it734) 0))
(assert (= (+ it735 (* it529 (- 1))) 0))
(assert (= (+ (* it528 (- 1)) it736) 0))
(assert (= (+ (* it529 (- 1)) it737) 0))
(assert (let ((a!1 (< (+ (exp it734 2) (exp it736 5) (+ 0 (* it735 (- 1)))) (+ 0 0)))
      (a!2 (< (+ (* (exp it734 2) (+ 0 4))
                 (exp it736 5)
                 (+ 0 (* it735 (- 3)))
                 (* (exp it736 3) (+ 0 2)))
              (+ 0 0))))
  (and a!1 (> it734 0) a!2 (< (* it734 (- 2)) 0) (= (+ it731 (- 3)) 0))))
(assert (= (+ it741 (- 3)) 0))
(assert (= (+ (* it732 (- 1)) it742 (- 2)) 0))
(assert (= (+ (* it733 (- 1)) it743) 0))
(assert (= (+ it744 (* it734 (- 4))) 0))
(assert (let ((a!1 (+ (+ 0 (+ (* it735 (- 9)) it745)) (* (exp it736 3) (+ 0 8)))))
  (= a!1 (+ 0 0))))
(assert (= (+ (* it736 (- 1)) it746) 0))
(assert (= (+ it747 (* it737 (- 1))) 0))
(assert (let ((a!1 (< (+ (exp it746 5) (+ 0 (* it745 (- 1))) (exp it744 2)) (+ 0 0))))
  (and (> it744 0) a!1 (= (+ it741 (- 3)) 0))))
(assert (= (+ it768 (- 3)) 0))
(assert (= (+ (* it742 (- 1)) it769 (- 1)) 0))
(assert (= (+ it770 (* it743 (- 1))) 0))
(assert (= (+ (* it744 2) it771) 0))
(assert (= (+ (+ 0 (* it745 (- 3))) (* (exp it746 3) (+ 0 2)) (+ 0 it772))
   (+ 0 0)))
(assert (= (+ it773 (* it746 (- 1))) 0))
(assert (= (+ (* it747 (- 1)) it774) 0))
(assert (let ((a!1 (< (+ (* (exp it773 3) (+ 0 2))
                 (exp it773 5)
                 (* (exp it771 2) (+ 0 4))
                 (+ 0 (* it772 (- 3))))
              (+ 0 0)))
      (a!2 (< (+ (exp it773 5) (exp it771 2) (+ 0 (* it772 (- 1)))) (+ 0 0))))
  (and a!1 (> (* it771 (- 2)) 0) (< it771 0) a!2 (= (+ it768 (- 3)) 0))))
(assert (= (+ it777 (- 3)) 0))
(assert (= (+ it778 (* it769 (- 1)) (- 2)) 0))
(assert (= (+ it779 (* it770 (- 1))) 0))
(assert (= (+ it780 (* it771 (- 4))) 0))
(assert (= (+ (* (exp it773 3) (+ 0 8)) (+ 0 it781) (+ 0 (* it772 (- 9))))
   (+ 0 0)))
(assert (= (+ it782 (* it773 (- 1))) 0))
(assert (= (+ it783 (* it774 (- 1))) 0))
(assert (let ((a!1 (> (+ (* (exp it780 2) (+ 0 (- 1)))
                 (* (exp it782 5) (+ 0 (- 1)))
                 (+ 0 it781))
              (+ 0 0)))
      (a!2 (* (* (+ 0 it781) (exp 9 (+ it107 (- 1)))) (+ 0 3)))
      (a!3 (* (exp (exp 4 (+ it107 (- 1))) (+ 0 2)) (exp it780 2)))
      (a!4 (* (* (exp it782 3) (exp 9 (+ it107 (- 1)))) (+ 0 (- 3))))
      (a!6 (* (* (exp it782 3) (exp 9 (+ it107 (- 1)))) (+ 0 (- 1))))
      (a!8 (> (+ (* (exp it780 2) (+ 0 (- 4)))
                 (* (exp it782 5) (+ 0 (- 1)))
                 (+ 0 (* it781 3))
                 (* (exp it782 3) (+ 0 (- 2))))
              (+ 0 0))))
(let ((a!5 (> (+ a!2
                 (* (exp it782 5) (+ 0 (- 1)))
                 (* a!3 (+ 0 (- 4)))
                 (exp it782 3)
                 a!4)
              (+ 0 0)))
      (a!7 (+ (* (+ 0 it781) (exp 9 (+ it107 (- 1))))
              (* (exp it782 5) (+ 0 (- 1)))
              (* a!3 (+ 0 (- 1)))
              (exp it782 3)
              a!6)))
  (and (> (* it780 (- 2)) 0)
       (>= (+ (* it777 (- 1)) 3) 0)
       (> (* it780 (- 1)) 0)
       (>= (+ it777 (- 3)) 0)
       a!1
       a!5
       (>= (+ it107 (- 1)) 0)
       (> a!7 (+ 0 0))
       a!8))))
(check-sat)
